smt/src/instances_smtlib/inst05.smt2
(set-logic ALL)
(declare-fun distances0 () (Array Int Int))
(declare-fun distances1 () (Array Int Int))
(declare-fun distances2 () (Array Int Int))
(declare-fun distances3 () (Array Int Int))
(declare-fun asg0 () (Array Int Int))
(declare-fun asg1 () (Array Int Int))
(declare-fun r_A00_1 () Bool)
(declare-fun r_A00_0 () Bool)
(declare-fun r_A10_1 () Bool)
(declare-fun r_A10_0 () Bool)
(declare-fun r_A20_1 () Bool)
(declare-fun r_A20_0 () Bool)
(declare-fun r_A30_1 () Bool)
(declare-fun r_A30_0 () Bool)
(declare-fun r_A01_1 () Bool)
(declare-fun r_A01_0 () Bool)
(declare-fun r_A11_1 () Bool)
(declare-fun r_A11_0 () Bool)
(declare-fun r_A21_1 () Bool)
(declare-fun r_A21_0 () Bool)
(declare-fun r_A31_1 () Bool)
(declare-fun r_A31_0 () Bool)
(declare-fun r_0_2 () Bool)
(declare-fun r_0_1 () Bool)
(declare-fun r_0_0 () Bool)
(declare-fun r_1_2 () Bool)
(declare-fun r_1_1 () Bool)
(declare-fun r_1_0 () Bool)
(declare-fun r_2_2 () Bool)
(declare-fun r_2_1 () Bool)
(declare-fun r_2_0 () Bool)
(declare-fun loads0 () Int)
(declare-fun loads1 () Int)
(declare-fun dist0 () Int)
(declare-fun dist1 () Int)
(declare-fun max () Int)
(assert (= (select distances0 0) 0))
(assert (= (select distances0 1) 21))
(assert (= (select distances0 2) 86))
(assert (= (select distances0 3) 99))
(assert (= (select distances1 0) 21))
(assert (= (select distances1 1) 0))
(assert (= (select distances1 2) 71))
(assert (= (select distances1 3) 80))
(assert (= (select distances2 0) 92))
(assert (= (select distances2 1) 71))
(assert (= (select distances2 2) 0))
(assert (= (select distances2 3) 61))
(assert (= (select distances3 0) 59))
(assert (= (select distances3 1) 80))
(assert (= (select distances3 2) 61))
(assert (= (select distances3 3) 0))
(assert (let ((a!1 (not (= (select asg0 (select asg0 3)) 4)))
      (a!2 (= (select asg0 (select asg0 (select asg0 3))) 4))
      (a!3 (= (select asg0 (select asg0 (select asg0 3))) (select asg0 0)))
      (a!4 (select asg0 (select asg0 (select asg0 (select asg0 3))))))
(let ((a!5 (and (not (= a!4 4)) (or (= a!4 (select asg0 0)) false))))
(let ((a!6 (or (= (select asg0 (select asg0 3)) (select asg0 0))
               (and (not a!2) (or a!3 a!5)))))
(let ((a!7 (and (not (= (select asg0 3) 4))
                (or (= (select asg0 3) (select asg0 0)) (and a!1 a!6)))))
  (=> (and (distinct (select asg0 0) (- 1)) (distinct (select asg0 0) 3)) a!7))))))
(assert (let ((a!1 (not (= (select asg0 (select asg0 3)) 4)))
      (a!2 (= (select asg0 (select asg0 (select asg0 3))) 4))
      (a!3 (= (select asg0 (select asg0 (select asg0 3))) (select asg0 1)))
      (a!4 (select asg0 (select asg0 (select asg0 (select asg0 3))))))
(let ((a!5 (and (not (= a!4 4)) (or (= a!4 (select asg0 1)) false))))
(let ((a!6 (or (= (select asg0 (select asg0 3)) (select asg0 1))
               (and (not a!2) (or a!3 a!5)))))
(let ((a!7 (and (not (= (select asg0 3) 4))
                (or (= (select asg0 3) (select asg0 1)) (and a!1 a!6)))))
  (=> (and (distinct (select asg0 1) (- 1)) (distinct (select asg0 1) 3)) a!7))))))
(assert (let ((a!1 (not (= (select asg0 (select asg0 3)) 4)))
      (a!2 (= (select asg0 (select asg0 (select asg0 3))) 4))
      (a!3 (= (select asg0 (select asg0 (select asg0 3))) (select asg0 2)))
      (a!4 (select asg0 (select asg0 (select asg0 (select asg0 3))))))
(let ((a!5 (and (not (= a!4 4)) (or (= a!4 (select asg0 2)) false))))
(let ((a!6 (or (= (select asg0 (select asg0 3)) (select asg0 2))
               (and (not a!2) (or a!3 a!5)))))
(let ((a!7 (and (not (= (select asg0 3) 4))
                (or (= (select asg0 3) (select asg0 2)) (and a!1 a!6)))))
  (=> (and (distinct (select asg0 2) (- 1)) (distinct (select asg0 2) 3)) a!7))))))
(assert (let ((a!1 (not (= (select asg0 (select asg0 3)) 4)))
      (a!2 (= (select asg0 (select asg0 (select asg0 3))) 4))
      (a!3 (= (select asg0 (select asg0 (select asg0 3))) (select asg0 3)))
      (a!4 (select asg0 (select asg0 (select asg0 (select asg0 3))))))
(let ((a!5 (and (not (= a!4 4)) (or (= a!4 (select asg0 3)) false))))
(let ((a!6 (or (= (select asg0 (select asg0 3)) (select asg0 3))
               (and (not a!2) (or a!3 a!5)))))
(let ((a!7 (and (not (= (select asg0 3) 4))
                (or (= (select asg0 3) (select asg0 3)) (and a!1 a!6)))))
  (=> (and (distinct (select asg0 3) (- 1)) (distinct (select asg0 3) 3)) a!7))))))
(assert (let ((a!1 (not (= (select asg1 (select asg1 3)) 4)))
      (a!2 (= (select asg1 (select asg1 (select asg1 3))) 4))
      (a!3 (= (select asg1 (select asg1 (select asg1 3))) (select asg1 0)))
      (a!4 (select asg1 (select asg1 (select asg1 (select asg1 3))))))
(let ((a!5 (and (not (= a!4 4)) (or (= a!4 (select asg1 0)) false))))
(let ((a!6 (or (= (select asg1 (select asg1 3)) (select asg1 0))
               (and (not a!2) (or a!3 a!5)))))
(let ((a!7 (and (not (= (select asg1 3) 4))
                (or (= (select asg1 3) (select asg1 0)) (and a!1 a!6)))))
  (=> (and (distinct (select asg1 0) (- 1)) (distinct (select asg1 0) 3)) a!7))))))
(assert (let ((a!1 (not (= (select asg1 (select asg1 3)) 4)))
      (a!2 (= (select asg1 (select asg1 (select asg1 3))) 4))
      (a!3 (= (select asg1 (select asg1 (select asg1 3))) (select asg1 1)))
      (a!4 (select asg1 (select asg1 (select asg1 (select asg1 3))))))
(let ((a!5 (and (not (= a!4 4)) (or (= a!4 (select asg1 1)) false))))
(let ((a!6 (or (= (select asg1 (select asg1 3)) (select asg1 1))
               (and (not a!2) (or a!3 a!5)))))
(let ((a!7 (and (not (= (select asg1 3) 4))
                (or (= (select asg1 3) (select asg1 1)) (and a!1 a!6)))))
  (=> (and (distinct (select asg1 1) (- 1)) (distinct (select asg1 1) 3)) a!7))))))
(assert (let ((a!1 (not (= (select asg1 (select asg1 3)) 4)))
      (a!2 (= (select asg1 (select asg1 (select asg1 3))) 4))
      (a!3 (= (select asg1 (select asg1 (select asg1 3))) (select asg1 2)))
      (a!4 (select asg1 (select asg1 (select asg1 (select asg1 3))))))
(let ((a!5 (and (not (= a!4 4)) (or (= a!4 (select asg1 2)) false))))
(let ((a!6 (or (= (select asg1 (select asg1 3)) (select asg1 2))
               (and (not a!2) (or a!3 a!5)))))
(let ((a!7 (and (not (= (select asg1 3) 4))
                (or (= (select asg1 3) (select asg1 2)) (and a!1 a!6)))))
  (=> (and (distinct (select asg1 2) (- 1)) (distinct (select asg1 2) 3)) a!7))))))
(assert (let ((a!1 (not (= (select asg1 (select asg1 3)) 4)))
      (a!2 (= (select asg1 (select asg1 (select asg1 3))) 4))
      (a!3 (= (select asg1 (select asg1 (select asg1 3))) (select asg1 3)))
      (a!4 (select asg1 (select asg1 (select asg1 (select asg1 3))))))
(let ((a!5 (and (not (= a!4 4)) (or (= a!4 (select asg1 3)) false))))
(let ((a!6 (or (= (select asg1 (select asg1 3)) (select asg1 3))
               (and (not a!2) (or a!3 a!5)))))
(let ((a!7 (and (not (= (select asg1 3) 4))
                (or (= (select asg1 3) (select asg1 3)) (and a!1 a!6)))))
  (=> (and (distinct (select asg1 3) (- 1)) (distinct (select asg1 3) 3)) a!7))))))
(assert (>= (select asg0 0) (- 1)))
(assert (<= (select asg0 0) 3))
(assert (>= (select asg0 1) (- 1)))
(assert (<= (select asg0 1) 3))
(assert (>= (select asg0 2) (- 1)))
(assert (<= (select asg0 2) 3))
(assert (>= (select asg0 3) (- 1)))
(assert (<= (select asg0 3) 3))
(assert (>= (select asg1 0) (- 1)))
(assert (<= (select asg1 0) 3))
(assert (>= (select asg1 1) (- 1)))
(assert (<= (select asg1 1) 3))
(assert (>= (select asg1 2) (- 1)))
(assert (<= (select asg1 2) 3))
(assert (>= (select asg1 3) (- 1)))
(assert (<= (select asg1 3) 3))
(assert (=> (distinct (select asg0 0) (- 1))
    (distinct (select asg0 (select asg0 0)) (- 1))))
(assert (=> (distinct (select asg0 1) (- 1))
    (distinct (select asg0 (select asg0 1)) (- 1))))
(assert (=> (distinct (select asg0 2) (- 1))
    (distinct (select asg0 (select asg0 2)) (- 1))))
(assert (=> (distinct (select asg0 3) (- 1))
    (distinct (select asg0 (select asg0 3)) (- 1))))
(assert (=> (distinct (select asg1 0) (- 1))
    (distinct (select asg1 (select asg1 0)) (- 1))))
(assert (=> (distinct (select asg1 1) (- 1))
    (distinct (select asg1 (select asg1 1)) (- 1))))
(assert (=> (distinct (select asg1 2) (- 1))
    (distinct (select asg1 (select asg1 2)) (- 1))))
(assert (=> (distinct (select asg1 3) (- 1))
    (distinct (select asg1 (select asg1 3)) (- 1))))
(assert (let ((a!1 (or (not (= (select asg0 0) 0)) (not r_A00_0)))
      (a!2 (or (not (= (select asg0 0) 0)) (not r_A00_1)))
      (a!3 (or (not (= (select asg0 1) 0)) (not r_A00_0)))
      (a!4 (or (not (= (select asg0 1) 0)) r_A00_1))
      (a!5 (or (not (= (select asg0 2) 0)) r_A00_0))
      (a!6 (or (not (= (select asg0 2) 0)) (not r_A00_1)))
      (a!7 (or (not (= (select asg0 3) 0)) r_A00_0))
      (a!8 (or (not (= (select asg0 3) 0)) r_A00_1)))
  (and a!1 a!2 a!3 a!4 a!5 a!6 a!7 a!8)))
(assert (let ((a!1 (or (not (= (select asg0 0) 1)) (not r_A10_0)))
      (a!2 (or (not (= (select asg0 0) 1)) (not r_A10_1)))
      (a!3 (or (not (= (select asg0 1) 1)) (not r_A10_0)))
      (a!4 (or (not (= (select asg0 1) 1)) r_A10_1))
      (a!5 (or (not (= (select asg0 2) 1)) r_A10_0))
      (a!6 (or (not (= (select asg0 2) 1)) (not r_A10_1)))
      (a!7 (or (not (= (select asg0 3) 1)) r_A10_0))
      (a!8 (or (not (= (select asg0 3) 1)) r_A10_1)))
  (and a!1 a!2 a!3 a!4 a!5 a!6 a!7 a!8)))
(assert (let ((a!1 (or (not (= (select asg0 0) 2)) (not r_A20_0)))
      (a!2 (or (not (= (select asg0 0) 2)) (not r_A20_1)))
      (a!3 (or (not (= (select asg0 1) 2)) (not r_A20_0)))
      (a!4 (or (not (= (select asg0 1) 2)) r_A20_1))
      (a!5 (or (not (= (select asg0 2) 2)) r_A20_0))
      (a!6 (or (not (= (select asg0 2) 2)) (not r_A20_1)))
      (a!7 (or (not (= (select asg0 3) 2)) r_A20_0))
      (a!8 (or (not (= (select asg0 3) 2)) r_A20_1)))
  (and a!1 a!2 a!3 a!4 a!5 a!6 a!7 a!8)))
(assert (let ((a!1 (or (not (= (select asg0 0) 3)) (not r_A30_0)))
      (a!2 (or (not (= (select asg0 0) 3)) (not r_A30_1)))
      (a!3 (or (not (= (select asg0 1) 3)) (not r_A30_0)))
      (a!4 (or (not (= (select asg0 1) 3)) r_A30_1))
      (a!5 (or (not (= (select asg0 2) 3)) r_A30_0))
      (a!6 (or (not (= (select asg0 2) 3)) (not r_A30_1)))
      (a!7 (or (not (= (select asg0 3) 3)) r_A30_0))
      (a!8 (or (not (= (select asg0 3) 3)) r_A30_1)))
  (and a!1 a!2 a!3 a!4 a!5 a!6 a!7 a!8)))
(assert (let ((a!1 (or (not (= (select asg1 0) 0)) (not r_A01_0)))
      (a!2 (or (not (= (select asg1 0) 0)) (not r_A01_1)))
      (a!3 (or (not (= (select asg1 1) 0)) (not r_A01_0)))
      (a!4 (or (not (= (select asg1 1) 0)) r_A01_1))
      (a!5 (or (not (= (select asg1 2) 0)) r_A01_0))
      (a!6 (or (not (= (select asg1 2) 0)) (not r_A01_1)))
      (a!7 (or (not (= (select asg1 3) 0)) r_A01_0))
      (a!8 (or (not (= (select asg1 3) 0)) r_A01_1)))
  (and a!1 a!2 a!3 a!4 a!5 a!6 a!7 a!8)))
(assert (let ((a!1 (or (not (= (select asg1 0) 1)) (not r_A11_0)))
      (a!2 (or (not (= (select asg1 0) 1)) (not r_A11_1)))
      (a!3 (or (not (= (select asg1 1) 1)) (not r_A11_0)))
      (a!4 (or (not (= (select asg1 1) 1)) r_A11_1))
      (a!5 (or (not (= (select asg1 2) 1)) r_A11_0))
      (a!6 (or (not (= (select asg1 2) 1)) (not r_A11_1)))
      (a!7 (or (not (= (select asg1 3) 1)) r_A11_0))
      (a!8 (or (not (= (select asg1 3) 1)) r_A11_1)))
  (and a!1 a!2 a!3 a!4 a!5 a!6 a!7 a!8)))
(assert (let ((a!1 (or (not (= (select asg1 0) 2)) (not r_A21_0)))
      (a!2 (or (not (= (select asg1 0) 2)) (not r_A21_1)))
      (a!3 (or (not (= (select asg1 1) 2)) (not r_A21_0)))
      (a!4 (or (not (= (select asg1 1) 2)) r_A21_1))
      (a!5 (or (not (= (select asg1 2) 2)) r_A21_0))
      (a!6 (or (not (= (select asg1 2) 2)) (not r_A21_1)))
      (a!7 (or (not (= (select asg1 3) 2)) r_A21_0))
      (a!8 (or (not (= (select asg1 3) 2)) r_A21_1)))
  (and a!1 a!2 a!3 a!4 a!5 a!6 a!7 a!8)))
(assert (let ((a!1 (or (not (= (select asg1 0) 3)) (not r_A31_0)))
      (a!2 (or (not (= (select asg1 0) 3)) (not r_A31_1)))
      (a!3 (or (not (= (select asg1 1) 3)) (not r_A31_0)))
      (a!4 (or (not (= (select asg1 1) 3)) r_A31_1))
      (a!5 (or (not (= (select asg1 2) 3)) r_A31_0))
      (a!6 (or (not (= (select asg1 2) 3)) (not r_A31_1)))
      (a!7 (or (not (= (select asg1 3) 3)) r_A31_0))
      (a!8 (or (not (= (select asg1 3) 3)) r_A31_1)))
  (and a!1 a!2 a!3 a!4 a!5 a!6 a!7 a!8)))
(assert (or (= (select asg0 0) 3)
    (= (select asg0 1) 3)
    (= (select asg0 2) 3)
    (= (select asg0 3) 3)
    (= (+ (select asg0 0) (select asg0 1) (select asg0 2) (select asg0 3))
       (- 4))))
(assert (or (= (select asg1 0) 3)
    (= (select asg1 1) 3)
    (= (select asg1 2) 3)
    (= (select asg1 3) 3)
    (= (+ (select asg1 0) (select asg1 1) (select asg1 2) (select asg1 3))
       (- 4))))
(assert (let ((a!1 (or (not (= (select asg0 0) 0)) (not r_0_0)))
      (a!2 (or (not (= (select asg0 0) 0)) (not r_0_1)))
      (a!3 (or (not (= (select asg0 0) 0)) (not r_0_2)))
      (a!4 (or (not (= (select asg0 1) 0)) (not r_0_0)))
      (a!5 (or (not (= (select asg0 1) 0)) (not r_0_1)))
      (a!6 (or (not (= (select asg0 1) 0)) r_0_2))
      (a!7 (or (not (= (select asg0 2) 0)) (not r_0_0)))
      (a!8 (or (not (= (select asg0 2) 0)) r_0_1))
      (a!9 (or (not (= (select asg0 2) 0)) (not r_0_2)))
      (a!10 (or (not (= (select asg0 3) 0)) (not r_0_0)))
      (a!11 (or (not (= (select asg0 3) 0)) r_0_1))
      (a!12 (or (not (= (select asg0 3) 0)) r_0_2))
      (a!13 (or (not (= (select asg1 0) 0)) r_0_0))
      (a!14 (or (not (= (select asg1 0) 0)) (not r_0_1)))
      (a!15 (or (not (= (select asg1 0) 0)) (not r_0_2)))
      (a!16 (or (not (= (select asg1 1) 0)) r_0_0))
      (a!17 (or (not (= (select asg1 1) 0)) (not r_0_1)))
      (a!18 (or (not (= (select asg1 1) 0)) r_0_2))
      (a!19 (or (not (= (select asg1 2) 0)) r_0_0))
      (a!20 (or (not (= (select asg1 2) 0)) r_0_1))
      (a!21 (or (not (= (select asg1 2) 0)) (not r_0_2)))
      (a!22 (or (not (= (select asg1 3) 0)) r_0_0))
      (a!23 (or (not (= (select asg1 3) 0)) r_0_1))
      (a!24 (or (not (= (select asg1 3) 0)) r_0_2)))
  (and (or (= (select asg0 0) 0)
           (= (select asg0 1) 0)
           (= (select asg0 2) 0)
           (= (select asg0 3) 0)
           (= (select asg1 0) 0)
           (= (select asg1 1) 0)
           (= (select asg1 2) 0)
           (= (select asg1 3) 0))
       a!1
       a!2
       a!3
       a!4
       a!5
       a!6
       a!7
       a!8
       a!9
       a!10
       a!11
       a!12
       a!13
       a!14
       a!15
       a!16
       a!17
       a!18
       a!19
       a!20
       a!21
       a!22
       a!23
       a!24)))
(assert (let ((a!1 (or (not (= (select asg0 0) 1)) (not r_1_0)))
      (a!2 (or (not (= (select asg0 0) 1)) (not r_1_1)))
      (a!3 (or (not (= (select asg0 0) 1)) (not r_1_2)))
      (a!4 (or (not (= (select asg0 1) 1)) (not r_1_0)))
      (a!5 (or (not (= (select asg0 1) 1)) (not r_1_1)))
      (a!6 (or (not (= (select asg0 1) 1)) r_1_2))
      (a!7 (or (not (= (select asg0 2) 1)) (not r_1_0)))
      (a!8 (or (not (= (select asg0 2) 1)) r_1_1))
      (a!9 (or (not (= (select asg0 2) 1)) (not r_1_2)))
      (a!10 (or (not (= (select asg0 3) 1)) (not r_1_0)))
      (a!11 (or (not (= (select asg0 3) 1)) r_1_1))
      (a!12 (or (not (= (select asg0 3) 1)) r_1_2))
      (a!13 (or (not (= (select asg1 0) 1)) r_1_0))
      (a!14 (or (not (= (select asg1 0) 1)) (not r_1_1)))
      (a!15 (or (not (= (select asg1 0) 1)) (not r_1_2)))
      (a!16 (or (not (= (select asg1 1) 1)) r_1_0))
      (a!17 (or (not (= (select asg1 1) 1)) (not r_1_1)))
      (a!18 (or (not (= (select asg1 1) 1)) r_1_2))
      (a!19 (or (not (= (select asg1 2) 1)) r_1_0))
      (a!20 (or (not (= (select asg1 2) 1)) r_1_1))
      (a!21 (or (not (= (select asg1 2) 1)) (not r_1_2)))
      (a!22 (or (not (= (select asg1 3) 1)) r_1_0))
      (a!23 (or (not (= (select asg1 3) 1)) r_1_1))
      (a!24 (or (not (= (select asg1 3) 1)) r_1_2)))
  (and (or (= (select asg0 0) 1)
           (= (select asg0 1) 1)
           (= (select asg0 2) 1)
           (= (select asg0 3) 1)
           (= (select asg1 0) 1)
           (= (select asg1 1) 1)
           (= (select asg1 2) 1)
           (= (select asg1 3) 1))
       a!1
       a!2
       a!3
       a!4
       a!5
       a!6
       a!7
       a!8
       a!9
       a!10
       a!11
       a!12
       a!13
       a!14
       a!15
       a!16
       a!17
       a!18
       a!19
       a!20
       a!21
       a!22
       a!23
       a!24)))
(assert (let ((a!1 (or (not (= (select asg0 0) 2)) (not r_2_0)))
      (a!2 (or (not (= (select asg0 0) 2)) (not r_2_1)))
      (a!3 (or (not (= (select asg0 0) 2)) (not r_2_2)))
      (a!4 (or (not (= (select asg0 1) 2)) (not r_2_0)))
      (a!5 (or (not (= (select asg0 1) 2)) (not r_2_1)))
      (a!6 (or (not (= (select asg0 1) 2)) r_2_2))
      (a!7 (or (not (= (select asg0 2) 2)) (not r_2_0)))
      (a!8 (or (not (= (select asg0 2) 2)) r_2_1))
      (a!9 (or (not (= (select asg0 2) 2)) (not r_2_2)))
      (a!10 (or (not (= (select asg0 3) 2)) (not r_2_0)))
      (a!11 (or (not (= (select asg0 3) 2)) r_2_1))
      (a!12 (or (not (= (select asg0 3) 2)) r_2_2))
      (a!13 (or (not (= (select asg1 0) 2)) r_2_0))
      (a!14 (or (not (= (select asg1 0) 2)) (not r_2_1)))
      (a!15 (or (not (= (select asg1 0) 2)) (not r_2_2)))
      (a!16 (or (not (= (select asg1 1) 2)) r_2_0))
      (a!17 (or (not (= (select asg1 1) 2)) (not r_2_1)))
      (a!18 (or (not (= (select asg1 1) 2)) r_2_2))
      (a!19 (or (not (= (select asg1 2) 2)) r_2_0))
      (a!20 (or (not (= (select asg1 2) 2)) r_2_1))
      (a!21 (or (not (= (select asg1 2) 2)) (not r_2_2)))
      (a!22 (or (not (= (select asg1 3) 2)) r_2_0))
      (a!23 (or (not (= (select asg1 3) 2)) r_2_1))
      (a!24 (or (not (= (select asg1 3) 2)) r_2_2)))
  (and (or (= (select asg0 0) 2)
           (= (select asg0 1) 2)
           (= (select asg0 2) 2)
           (= (select asg0 3) 2)
           (= (select asg1 0) 2)
           (= (select asg1 1) 2)
           (= (select asg1 2) 2)
           (= (select asg1 3) 2))
       a!1
       a!2
       a!3
       a!4
       a!5
       a!6
       a!7
       a!8
       a!9
       a!10
       a!11
       a!12
       a!13
       a!14
       a!15
       a!16
       a!17
       a!18
       a!19
       a!20
       a!21
       a!22
       a!23
       a!24)))
(assert (let ((a!1 (+ (ite (distinct (select asg0 0) (- 1)) 20 0)
              (ite (distinct (select asg0 1) (- 1)) 17 0)
              (ite (distinct (select asg0 2) (- 1)) 6 0))))
  (= loads0 a!1)))
(assert (let ((a!1 (+ (ite (distinct (select asg1 0) (- 1)) 20 0)
              (ite (distinct (select asg1 1) (- 1)) 17 0)
              (ite (distinct (select asg1 2) (- 1)) 6 0))))
  (= loads1 a!1)))
(assert (<= loads0 18))
(assert (<= loads1 30))
(assert (let ((a!1 (+ (ite (distinct (select asg0 0) (- 1))
                   (select distances0 (select asg0 0))
                   0)
              (ite (distinct (select asg0 1) (- 1))
                   (select distances1 (select asg0 1))
                   0)
              (ite (distinct (select asg0 2) (- 1))
                   (select distances2 (select asg0 2))
                   0)
              (ite (distinct (select asg0 3) (- 1))
                   (select distances3 (select asg0 3))
                   0))))
  (= dist0 a!1)))
(assert (let ((a!1 (+ (ite (distinct (select asg1 0) (- 1))
                   (select distances0 (select asg1 0))
                   0)
              (ite (distinct (select asg1 1) (- 1))
                   (select distances1 (select asg1 1))
                   0)
              (ite (distinct (select asg1 2) (- 1))
                   (select distances2 (select asg1 2))
                   0)
              (ite (distinct (select asg1 3) (- 1))
                   (select distances3 (select asg1 3))
                   0))))
  (= dist1 a!1)))
(assert (= max (ite (> dist1 dist0) dist1 dist0)))
(assert (< max 802))
(assert (< max 401))
(check-sat)
(get-value (asg0))
(get-value (asg1))
