input/inst05.dat
5
3
18 19 22 10 5
22 17 6
0 21 86 99 
21 0 71 80 
92 71 0 61 
59 80 61 0 
